# Solution for model r3_t9_m7_3
# Finished Task: 8 / 9
# Makespan: 568.0, Total Distance: 539.0, Total Time: 0.0613
# R O S F
0 0 6 0.0 0.0
1 1 4 0.0 0.0
2 2 11 0.0 0.0
3 -1 -1 -1.0 -1.0
4 1 8 220.0 241.0
5 0 10 445.0 480.0
6 0 5 386.0 415.0
7 2 -1 493.0 527.0
8 1 9 415.0 441.0
9 1 -1 532.0 568.0
10 0 -1 506.0 538.0
11 2 7 441.0 469.0
